(set-option :produce-models true)
(define-fun ceil ((x Real)) Int (ite (= (to_int x) x) (to_int x) (+ (to_int x) 1)))
(define-fun min2 ((x Int) (y Int)) Int (ite (< x y) x y))
(define-fun max2 ((x Int) (y Int)) Int (ite (> x y) x y))
(define-fun sqrt ((x Real)) Real (^ x 0.5))

(declare-const x__base_size0 Int)
(set-info :example-x__base_size0 256)
(declare-const x__base_size1 Int)
(set-info :example-x__base_size1 2)
(declare-const x__base_stride0 Int)
(set-info :example-x__base_stride0 2)
(declare-const x__base_stride1 Int)
(set-info :example-x__base_stride1 1)
(declare-const x__base_storage_offset Int)
(set-info :example-x__base_storage_offset 0)
(define-fun ge () Bool (>= x__base_size0 0))
(assert ge)
(define-fun ge_1 () Bool (>= x__base_size1 0))
(assert ge_1)
(define-fun eq () Bool (= x__base_size0 0))
(define-fun not_ () Bool (not eq))
(assert not_)
(define-fun sub () Int (- x__base_size0 1))
(define-fun mul () Int (* x__base_stride0 sub))
(define-fun add () Int (+ 1 mul))
(define-fun eq_1 () Bool (= x__base_size1 0))
(define-fun not__1 () Bool (not eq_1))
(assert not__1)
(define-fun sub_1 () Int (- x__base_size1 1))
(define-fun mul_1 () Int (* x__base_stride1 sub_1))
(define-fun add_1 () Int (+ add mul_1))
(define-fun mul_2 () Int (* 4 add_1))
(define-fun mul_3 () Int (* x__base_size0 x__base_size1))
(define-fun eq_2 () Bool (= mul_3 0))
(define-fun not__2 () Bool (not eq_2))
(assert not__2)
(define-fun eq_3 () Bool (= x__base_size1 1))
(define-fun not__3 () Bool (not eq_3))
(assert not__3)
(define-fun eq_4 () Bool (= x__base_stride1 1))
(assert eq_4)
(define-fun eq_5 () Bool (= x__base_size0 1))
(define-fun not__4 () Bool (not eq_5))
(assert not__4)
(define-fun eq_6 () Bool (= x__base_stride0 x__base_size1))
(assert eq_6)
(define-fun mul_4 () Int (* x__base_size1 x__base_size0))
(define-fun ge_2 () Bool (>= x__base_storage_offset 0))
(assert ge_2)
(define-fun add_2 () Int (+ x__base_storage_offset add_1))
(define-fun mul_5 () Int (* 4 add_2))
(declare-const x_size0 Int)
(set-info :example-x_size0 256)
(declare-const x_size1 Int)
(set-info :example-x_size1 1)
(declare-const x_stride0 Int)
(set-info :example-x_stride0 2)
(declare-const x_stride1 Int)
(set-info :example-x_stride1 1)
(declare-const x_storage_offset Int)
(set-info :example-x_storage_offset 0)
(define-fun eq_7 () Bool (= x__base_size0 -1))
(define-fun not__5 () Bool (not eq_7))
(assert not__5)
(define-fun eq_8 () Bool (= x__base_size1 -1))
(define-fun not__6 () Bool (not eq_8))
(assert not__6)
(define-fun eq_9 () Bool (= mul_3 mul_3))
(assert eq_9)
(define-fun eq_10 () Bool (= x__base_size0 x__base_size0))
(assert eq_10)
(define-fun eq_11 () Bool (= x__base_size1 x__base_size1))
(assert eq_11)
(define-fun mul_6 () Int (* x_size0 x_size1))
(define-fun eq_12 () Bool (= mul_6 0))
(define-fun not__7 () Bool (not eq_12))
(assert not__7)
(define-fun eq_13 () Bool (= x_size1 1))
(assert eq_13)
(define-fun eq_14 () Bool (= x_size0 1))
(define-fun not__8 () Bool (not eq_14))
(assert not__8)
(define-fun eq_15 () Bool (= x_stride0 1))
(define-fun not__9 () Bool (not eq_15))
(assert not__9)
(define-fun lt () Bool (< x_size1 2))
(assert lt)
(define-fun lt_1 () Bool (< x_size0 2))
(define-fun not__10 () Bool (not lt_1))
(assert not__10)
(define-fun eq_16 () Bool (= x_size0 x_size0))
(assert eq_16)
(define-fun eq_17 () Bool (= x_size1 x_size1))
(assert eq_17)
(define-fun eq_18 () Bool (= x_stride1 0))
(define-fun not__11 () Bool (not eq_18))
(assert not__11)
(define-fun eq_19 () Bool (= x_stride0 0))
(define-fun not__12 () Bool (not eq_19))
(assert not__12)
(define-fun lt_2 () Bool (< x_stride1 x_stride0))
(assert lt_2)
(define-fun ge_3 () Bool (>= x_size0 0))
(assert ge_3)
(define-fun ge_4 () Bool (>= x_size1 0))
(assert ge_4)
(define-fun eq_20 () Bool (= x_size1 0))
(define-fun not__13 () Bool (not eq_20))
(assert not__13)
(define-fun eq_21 () Bool (= x_size0 0))
(define-fun not__14 () Bool (not eq_21))
(assert not__14)
(define-fun mul_7 () Int (* x_size1 x_size0))
(define-fun sub_2 () Int (- x_size0 1))
(define-fun mul_8 () Int (* x_size1 sub_2))
(define-fun add_3 () Int (+ 1 mul_8))
(define-fun sub_3 () Int (- x_size1 1))
(define-fun add_4 () Int (+ add_3 sub_3))
(define-fun mul_9 () Int (* 4 add_4))
(define-fun eq_22 () Bool (= x_size0 -1))
(define-fun not__15 () Bool (not eq_22))
(assert not__15)
(define-fun eq_23 () Bool (= x_size1 -1))
(define-fun not__16 () Bool (not eq_23))
(assert not__16)
(define-fun eq_24 () Bool (= mul_6 mul_6))
(assert eq_24)
(define-fun eq_25 () Bool (= mul_5 0))
(define-fun not__17 () Bool (not eq_25))
(assert not__17)
(define-fun eq_26 () Bool (= mul_9 0))
(define-fun not__18 () Bool (not eq_26))
(assert not__18)
(define-fun output0_size0 () Int x_size0)
(define-fun output0_size1 () Int x_size1)
(define-fun output0_stride0 () Int x_size1)
(define-fun output0_stride1 () Int 1)
(define-fun output0_storage_offset () Int 0)
(check-sat)
(get-value (x__base_size0 x__base_size1 x__base_stride0 x__base_stride1 x__base_storage_offset x_size0 x_size1 x_stride0 x_stride1 x_storage_offset output0_size0 output0_size1 output0_stride0 output0_stride1 output0_storage_offset))
